100
128
49
4
31
47
50
45
59
52
51
26
11
39
58
53
64
34
37
31
57
21
59
57
55
7
1
31
63
39
52
1
6
37
26
35
38
56
38
9
12
12
64
17
36
11
10
11
45
38
9
28
14
26
56
17
9
3
40
6
47
27
24
1
10
31
25
3
51
10
11
36
25
36
29
27
10
26
10
48
17
12
29
2
27
2
31
41
1
32
3
15
27
22
50
44
60
41
36
51
15
3